(declare-fun temp578_1 () (_ BitVec 64))
(declare-fun var81157 () (_ BitVec 64))
(declare-fun ARGNAME_n_fft_NAMEEND () (_ BitVec 64))
(declare-fun temp578_2 () (_ BitVec 64))
(declare-fun var1050945 () (_ BitVec 64))
(declare-fun temp578_3 () (_ BitVec 64))
(declare-fun var67312 () (_ BitVec 64))
(declare-fun temp578_4 () (_ BitVec 64))
(declare-fun var81838 () (_ BitVec 64))
(declare-fun temp578_5 () (_ BitVec 64))
(declare-fun var81839 () (_ BitVec 64))
(declare-fun temp578_6 () (_ BitVec 64))
(declare-fun var82185 () (_ BitVec 64))
(declare-fun ARGNAME_hop_length_NAMEEND () (_ BitVec 64))
(declare-fun var82186 () (_ BitVec 64))
(declare-fun null () (_ BitVec 64))
(declare-fun temp578_7 () (_ BitVec 64))
(declare-fun var82187 () (_ BitVec 64))
(declare-fun k!0 () Bool)
(declare-fun var82356 () (_ BitVec 64))
(declare-fun temp578_8 () (_ BitVec 64))
(declare-fun temp578_9 () (_ BitVec 64))
(declare-fun ARGNAME_window_NAMEEND_DIM () (_ BitVec 64))
(declare-fun var82528 () (_ BitVec 64))
(declare-fun temp578_10 () (_ BitVec 64))
(declare-fun temp578_11 () (_ BitVec 64))
(declare-fun var65913 () (_ BitVec 64))
(declare-fun temp578_12 () (_ BitVec 64))
(declare-fun temp578_13 () (_ BitVec 64))
(declare-fun ARGNAME_window_NAMEEND_DIMSIZE
             ()
             (Array (_ BitVec 64) (_ BitVec 64)))
(declare-fun temp578_14 () (_ BitVec 64))
(declare-fun temp578_15 () (_ BitVec 64))
(declare-fun temp578_16 () (_ BitVec 64))
(declare-fun temp578_17 () (_ BitVec 64))
(declare-fun temp578_18 () (_ BitVec 64))
(declare-fun temp578_19 () (_ BitVec 64))
(declare-fun temp578_20 () (_ BitVec 64))
(declare-fun temp578_21 () (_ BitVec 64))
(declare-fun temp578_22 () (_ BitVec 64))
(declare-fun temp578_23 () (_ BitVec 64))
(declare-fun temp578_24 () (_ BitVec 64))
(declare-fun temp578_25 () (_ BitVec 64))
(declare-fun temp578_26 () (_ BitVec 64))
(declare-fun temp578_27 () (_ BitVec 64))
(declare-fun temp578_28 () (_ BitVec 64))
(declare-fun temp578_29 () (_ BitVec 64))
(declare-fun temp578_31 () (_ BitVec 64))
(declare-fun temp578_30 () (_ BitVec 64))
(declare-fun temp578_32 () (_ BitVec 64))
(declare-fun temp578_33 () (_ BitVec 64))
(declare-fun var82530 () (_ BitVec 64))
(declare-fun var82531 () (_ BitVec 64))
(declare-fun temp578_34 () (_ BitVec 64))
(declare-fun var82728 () (_ BitVec 64))
(declare-fun temp578_35 () (_ BitVec 64))
(declare-fun var1914351 () (_ BitVec 64))
(declare-fun temp578_36 () (_ BitVec 64))
(declare-fun var2115797 () (_ BitVec 64))
(declare-fun temp578_37 () (_ BitVec 64))
(declare-fun var2115798 () (_ BitVec 64))
(declare-fun temp578_39 () (_ BitVec 64))
(declare-fun temp578_38 () (_ BitVec 64))
(declare-fun temp578_40 () (_ BitVec 64))
(declare-fun var2628020 () (_ BitVec 64))
(declare-fun temp578_41 () (_ BitVec 64))
(declare-fun temp578_42 () (_ BitVec 64))
(declare-fun ARGNAME_normalized_NAMEEND () (_ BitVec 64))
(declare-fun var82862 () (_ BitVec 64))
(declare-fun temp578_43 () (_ BitVec 64))
(declare-fun ARGNAME_return_complex_NAMEEND () (_ BitVec 64))
(declare-fun var82911 () (_ BitVec 64))
(declare-fun var3740376 () (_ BitVec 64))
(declare-fun temp578_44 () (_ BitVec 64))
(declare-fun var3740377 () (_ BitVec 64))
(declare-fun temp578_45 () (_ BitVec 64))
(declare-fun var69143 () (_ BitVec 64))
(declare-fun temp578_47 () (_ BitVec 64))
(declare-fun temp578_46 () (_ BitVec 64))
(declare-fun temp578_49 () (_ BitVec 64))
(declare-fun temp578_48 () (_ BitVec 64))
(declare-fun temp578_51 () (_ BitVec 64))
(declare-fun temp578_50 () (_ BitVec 64))
(declare-fun temp578_52 () (_ BitVec 64))
(declare-fun var4212949 () (_ BitVec 64))
(declare-fun var4212950 () (_ BitVec 64))
(declare-fun temp578_54 () (_ BitVec 64))
(declare-fun temp578_53 () (_ BitVec 64))
(declare-fun temp578_56 () (_ BitVec 64))
(declare-fun temp578_55 () (_ BitVec 64))
(declare-fun temp578_58 () (_ BitVec 64))
(declare-fun temp578_57 () (_ BitVec 64))
(declare-fun temp578_60 () (_ BitVec 64))
(declare-fun temp578_59 () (_ BitVec 64))
(declare-fun temp578_62 () (_ BitVec 64))
(declare-fun temp578_61 () (_ BitVec 64))
(declare-fun temp578_64 () (_ BitVec 64))
(declare-fun temp578_63 () (_ BitVec 64))
(declare-fun var4868391 () (_ BitVec 64))
(declare-fun temp578_65 () (_ BitVec 64))
(declare-fun var4983962 () (_ BitVec 64))
(declare-fun temp578_67 () (_ BitVec 64))
(declare-fun temp578_66 () (_ BitVec 64))
(declare-fun temp578_69 () (_ BitVec 64))
(declare-fun temp578_68 () (_ BitVec 64))
(declare-fun var5453295 () (_ BitVec 64))
(declare-fun temp578_71 () (_ BitVec 64))
(declare-fun temp578_70 () (_ BitVec 64))
(declare-fun temp578_73 () (_ BitVec 64))
(declare-fun temp578_72 () (_ BitVec 64))
(declare-fun temp578_75 () (_ BitVec 64))
(declare-fun temp578_74 () (_ BitVec 64))
(declare-fun temp578_77 () (_ BitVec 64))
(declare-fun temp578_76 () (_ BitVec 64))
(declare-fun temp578_79 () (_ BitVec 64))
(declare-fun temp578_78 () (_ BitVec 64))
(declare-fun temp578_81 () (_ BitVec 64))
(declare-fun temp578_80 () (_ BitVec 64))
(declare-fun var6375719 () (_ BitVec 64))
(declare-fun temp578_82 () (_ BitVec 64))
(declare-fun ARGNAME_center_NAMEEND () (_ BitVec 64))
(declare-fun var83534 () (_ BitVec 64))
(declare-fun temp578_83 () (_ BitVec 64))
(declare-fun var83540 () (_ BitVec 64))
(declare-fun var6506824 () (_ BitVec 64))
(declare-fun var6818804 () (_ BitVec 64))
(declare-fun temp578_84 () (_ BitVec 64))
(declare-fun var6818808 () (_ BitVec 64))
(declare-fun var7736308 () (_ BitVec 64))
(declare-fun temp578_85 () (_ BitVec 64))
(declare-fun var7736312 () (_ BitVec 64))
(declare-fun temp578_86 () (_ BitVec 64))
(declare-fun var7736350 () (_ BitVec 64))
(declare-fun temp578_87 () (_ BitVec 64))
(declare-fun temp578_88 () (_ BitVec 64))
(declare-fun var9062695 () (_ BitVec 64))
(declare-fun temp578_89 () (_ BitVec 64))
(declare-fun var9374874 () (_ BitVec 64))
(assert (= temp578_1 #x0000000000000002))
(assert (= var81157 (bvashr ARGNAME_n_fft_NAMEEND temp578_1)))
(assert (= temp578_2 #x0000000000000000))
(assert (= var1050945 temp578_2))
(assert (= temp578_3 #xffffffffffffffff))
(assert (= var67312 temp578_3))
(assert (= temp578_4 #x0000000000000002))
(assert (= var81838 (bvsdiv ARGNAME_n_fft_NAMEEND temp578_4)))
(assert (= temp578_5 #x0000000000000001))
(assert (= var81839 (bvadd var81838 temp578_5)))
(assert (= temp578_6 #x0000000000000001))
(assert (= var82185
   (ite (bvslt ARGNAME_hop_length_NAMEEND temp578_6)
        #x0000000000000001
        #x0000000000000000)))
(assert (= var82186
   (ite (bvsgt ARGNAME_hop_length_NAMEEND null)
        #x0000000000000001
        #x0000000000000000)))
(assert (= var82187 (bvor var82185 var82186)))
(assert (= temp578_7 #x0000000000000000))
(assert (= var82187 temp578_7))
(assert (= var82356
   (ite (bvsgt null ARGNAME_n_fft_NAMEEND)
        #x0000000000000001
        #x0000000000000000)))
(assert (= temp578_8 #x0000000000000000))
(assert (= var82356 temp578_8))
(assert (= temp578_9 #x0000000000000001))
(assert (= var82528
   (ite (= ARGNAME_window_NAMEEND_DIM temp578_9)
        #x0000000000000001
        #x0000000000000000)))
(assert (= temp578_10 #x0000000000000001))
(assert (= var82528 temp578_10))
(assert (= temp578_11 #x0000000000000000))
(assert (= var65913 temp578_11))
(assert (= temp578_12 #x0000000000000000))
(assert (= temp578_13 temp578_12))
(assert (= temp578_14 (select ARGNAME_window_NAMEEND_DIMSIZE temp578_13)))
(assert (= temp578_15 #x0000000000000001))
(assert (= temp578_16 temp578_15))
(assert (= temp578_17 (select ARGNAME_window_NAMEEND_DIMSIZE temp578_16)))
(assert (= temp578_18 #x0000000000000002))
(assert (= temp578_19 temp578_18))
(assert (= temp578_20 (select ARGNAME_window_NAMEEND_DIMSIZE temp578_19)))
(assert (= temp578_21 #x0000000000000003))
(assert (= temp578_22 temp578_21))
(assert (= temp578_23 (select ARGNAME_window_NAMEEND_DIMSIZE temp578_22)))
(assert (= temp578_24 #x0000000000000004))
(assert (= temp578_25 temp578_24))
(assert (= temp578_26 (select ARGNAME_window_NAMEEND_DIMSIZE temp578_25)))
(assert (= temp578_27 #x0000000000000005))
(assert (= temp578_28 temp578_27))
(assert (= temp578_29 (select ARGNAME_window_NAMEEND_DIMSIZE temp578_28)))
(assert (= temp578_31 #x0000000000000000))
(assert (= temp578_30
   (ite (bvslt var65913 temp578_31)
        (bvadd ARGNAME_window_NAMEEND_DIM var65913)
        var65913)))
(assert (= temp578_32 temp578_30))
(assert (= temp578_33 (select ARGNAME_window_NAMEEND_DIMSIZE temp578_32)))
(assert (= var82530 temp578_33))
(assert (bvslt temp578_30 ARGNAME_window_NAMEEND_DIM))
(assert (= var82531 (ite (= var82530 null) #x0000000000000001 #x0000000000000000)))
(assert (= temp578_34 #x0000000000000001))
(assert (= var82531 temp578_34))
(assert (= var82728
   (ite (= ARGNAME_n_fft_NAMEEND null) #x0000000000000001 #x0000000000000000)))
(assert (= temp578_35 #x0000000000000001))
(assert (= var82728 temp578_35))
(assert (= var1914351 var65913))
(assert (= temp578_36 #x0000000000000001))
(assert (= var2115797 temp578_36))
(assert (= temp578_37 #x0000000000000002))
(assert (= var2115798 temp578_37))
(assert (= temp578_39 #x0000000000000000))
(assert (= temp578_38 temp578_39))
(assert (= temp578_40 #x0000000000000000))
(assert (= var2628020 temp578_40))
(assert (= temp578_41 #x0000000000000001))
(assert (= temp578_42 #x0000000000000002))
(assert (= var82862
   (ite (= ARGNAME_normalized_NAMEEND #x0000000000000001) temp578_41 temp578_42)))
(assert (= temp578_43 #x0000000000000001))
(assert (= ARGNAME_return_complex_NAMEEND temp578_43))
(assert (= var82911 var82862))
(assert (= var3740376 var82911))
(assert (= temp578_44 #x0000000000000000))
(assert (= var3740377 temp578_44))
(assert (= temp578_45 #x0000000000000002))
(assert (= var69143 temp578_45))
(assert (= temp578_47 #x0000000000000001))
(assert (= temp578_46 temp578_47))
(assert (= temp578_49 #x0000000000000001))
(assert (= temp578_48 temp578_49))
(assert (= temp578_51 #x0000000000000003))
(assert (= temp578_50 temp578_51))
(assert (= temp578_52 #x0000000000000001))
(assert (= var4212949 temp578_52))
(assert (= var4212950 var69143))
(assert (= temp578_54 #x0000000000000001))
(assert (= temp578_53 temp578_54))
(assert (= temp578_56 #x0000000000000001))
(assert (= temp578_55 temp578_56))
(assert (= temp578_58 #x0000000000000001))
(assert (= temp578_57 temp578_58))
(assert (= temp578_60 #x0000000000000001))
(assert (= temp578_59 temp578_60))
(assert (= temp578_62 #x0000000000000000))
(assert (= temp578_61 temp578_62))
(assert (= temp578_64 #x0000000000000001))
(assert (= temp578_63 temp578_64))
(assert (= var4868391 var69143))
(assert (= temp578_65 #x0000000000000002))
(assert (= var4983962 temp578_65))
(assert (= temp578_67 #x0000000000000001))
(assert (= temp578_66 temp578_67))
(assert (= temp578_69 #x0000000000000001))
(assert (= temp578_68 temp578_69))
(assert (= var5453295 var65913))
(assert (= temp578_71 #x0000000000000001))
(assert (= temp578_70 temp578_71))
(assert (= temp578_73 #x0000000000000001))
(assert (= temp578_72 temp578_73))
(assert (= temp578_75 #x0000000000000001))
(assert (= temp578_74 temp578_75))
(assert (= temp578_77 #x0000000000000001))
(assert (= temp578_76 temp578_77))
(assert (= temp578_79 #x0000000000000000))
(assert (= temp578_78 temp578_79))
(assert (= temp578_81 #x0000000000000001))
(assert (= temp578_80 temp578_81))
(assert (= var6375719 var69143))
(assert (= temp578_82 #x0000000000000000))
(assert (= var83534
   (ite (= ARGNAME_center_NAMEEND temp578_82)
        #x0000000000000001
        #x0000000000000000)))
(assert (= temp578_83 #x0000000000000001))
(assert (= var83534 temp578_83))
(assert (= var83540 var65913))
(assert (= var6506824 var83540))
(assert (= var6818804 var69143))
(assert (= temp578_84 #x0000000000000001))
(assert (= var6818808 temp578_84))
(assert (= var7736308 var69143))
(assert (= temp578_85 #x0000000000000001))
(assert (= var7736312 temp578_85))
(assert (= temp578_86 #x0000000000000000))
(assert (= var7736350 temp578_86))
(assert (= temp578_87 #x0000000000000000))
(assert (= var7736350 temp578_87))
(assert (= temp578_88 #x0000000000000001))
(assert (= var9062695 temp578_88))
(assert (= temp578_89 #x0000000000000000))
(assert (= var9374874 temp578_89))
(model-add temp578_1 () (_ BitVec 64) #x0000000000000002)
(model-add var81157
           ()
           (_ BitVec 64)
           (bvashr ARGNAME_n_fft_NAMEEND #x0000000000000002))
(model-add temp578_2 () (_ BitVec 64) #x0000000000000000)
(model-add var1050945 () (_ BitVec 64) #x0000000000000000)
(model-add temp578_3 () (_ BitVec 64) #xffffffffffffffff)
(model-add var67312 () (_ BitVec 64) #xffffffffffffffff)
(model-add temp578_4 () (_ BitVec 64) #x0000000000000002)
(model-add var81838
           ()
           (_ BitVec 64)
           (bvsdiv_i ARGNAME_n_fft_NAMEEND #x0000000000000002))
(model-add temp578_5 () (_ BitVec 64) #x0000000000000001)
(model-add var81839
           ()
           (_ BitVec 64)
           (bvadd #x0000000000000001
                  (bvsdiv_i ARGNAME_n_fft_NAMEEND #x0000000000000002)))
(model-add temp578_6 () (_ BitVec 64) #x0000000000000001)
(model-add var82185
           ()
           (_ BitVec 64)
           (ite (bvsle #x0000000000000001 ARGNAME_hop_length_NAMEEND)
                #x0000000000000000
                #x0000000000000001))
(model-add var82186
           ()
           (_ BitVec 64)
           (ite (bvsle ARGNAME_hop_length_NAMEEND null)
                #x0000000000000000
                #x0000000000000001))
(model-add temp578_7 () (_ BitVec 64) #x0000000000000000)
(model-add var82187 () (_ BitVec 64) #x0000000000000000)
(model-del k!0)
(model-add null
           ()
           (_ BitVec 64)
           (ite (or k!0 (= ARGNAME_hop_length_NAMEEND #x8000000000000000))
                ARGNAME_hop_length_NAMEEND
                (bvsub ARGNAME_hop_length_NAMEEND #x0000000000000001)))





